
Gurobi 10.0.3 (linux64, gurobi_cl) logging started Thu Nov  2 11:34:05 2023

Set parameter Username
Set parameter TimeLimit to value 3600
Set parameter LogFile to value "RCPSP_380.log"
Set parameter Threads to value 32
Academic license - for non-commercial use only - expires 2024-10-30
Using license file /home/jrivera6/gurobi-licenses/v1003/compute-0-34/gurobi.lic

Gurobi Optimizer version 10.0.3 build v10.0.3rc0 (linux64)
Copyright (c) 2023, Gurobi Optimization, LLC

Read MPS format model from file RCPSP_380.mps
Reading time = 0.01 seconds
RCPSP_380: 5349 rows, 2080 columns, 17064 nonzeros

CPU model: Intel(R) Xeon(R) Gold 6130 CPU @ 2.10GHz, instruction set [SSE2|AVX|AVX2|AVX512]
Thread count: 32 physical cores, 32 logical processors, using up to 32 threads

Optimize a model with 5349 rows, 2080 columns and 17064 nonzeros
Model fingerprint: 0x6660b4be
Variable types: 32 continuous, 2048 integer (2048 binary)
Coefficient statistics:
  Matrix range     [1e+00, 2e+02]
  Objective range  [1e+00, 1e+00]
  Bounds range     [1e+00, 1e+00]
  RHS range        [1e+00, 2e+02]
Presolve removed 3393 rows and 1354 columns
Presolve time: 0.32s
Presolved: 1956 rows, 726 columns, 6086 nonzeros
Variable types: 31 continuous, 695 integer (695 binary)

Root relaxation: objective 5.900000e+01, 261 iterations, 0.00 seconds (0.00 work units)

    Nodes    |    Current Node    |     Objective Bounds      |     Work
 Expl Unexpl |  Obj  Depth IntInf | Incumbent    BestBd   Gap | It/Node Time

     0     0   59.00000    0    3          -   59.00000      -     -    0s
H    0     0                      64.0000000   59.00000  7.81%     -    0s
H    0     0                      61.0000000   59.00000  3.28%     -    0s
H    0     0                      60.0000000   59.00000  1.67%     -    0s
     0     0   59.00000    0   12   60.00000   59.00000  1.67%     -    0s
     0     0   59.00000    0    4   60.00000   59.00000  1.67%     -    2s
H    0     0                      59.9999990   59.00000  1.67%     -    2s
     0     0   59.00000    0   14   60.00000   59.00000  1.67%     -    3s
     0     0   59.00000    0   14   60.00000   59.00000  1.67%     -    3s
     0     0   59.00000    0   23   60.00000   59.00000  1.67%     -    3s
     0     0   59.00000    0   15   60.00000   59.00000  1.67%     -    3s
     0     0   59.00000    0    7   60.00000   59.00000  1.67%     -    3s

Cutting planes:
  Gomory: 3
  Cover: 1
  MIR: 6
  RLT: 1
  Relax-and-lift: 1

Explored 1 nodes (1269 simplex iterations) in 3.94 seconds (0.31 work units)
Thread count was 32 (of 32 available processors)

Solution count 4: 60 60 61 64 

Optimal solution found (tolerance 1.00e-04)
Warning: max constraint violation (1.9878e-06) exceeds tolerance
Best objective 5.999999900610e+01, best bound 5.999999900610e+01, gap 0.0000%

Wrote result file 'RCPSP_380.sol'

